language ESSENCE' 1.0
$ Problem from Gecode/examples/minesweeper.cc  problem 8
letting r be 7
letting c be 7
letting game be [
       [-1,-1,-1,-1,-1,-1,-1],
       [-1,2,3,4,3,5,-1],
       [-1,1,-1,-1,-1,3,-1],
       [-1,-1,-1,5,-1,-1,-1],
       [-1,1,-1,-1,-1,3,-1],
       [-1,1,2,2,3,4,-1],
       [-1,-1,-1,-1,-1,-1,-1]
   ]

